CPXPARAM_Emphasis_MIP#P8#1#4.224219#0.906069
CPXPARAM_Emphasis_MIP#P8#2#4.451382#0.954794
CPXPARAM_Emphasis_MIP#P8#4#4.037351#0.865987
CPXPARAM_Emphasis_MIP#P8#5#2.681125#0.575085
CPXPARAM_MIP_Strategy_NodeSelect#P39#1#3.126238#0.670559
CPXPARAM_MIP_Strategy_NodeSelect#P39#2#4.662140#1.000000
CPXPARAM_MIP_Strategy_NodeSelect#P39#3#0.999097#0.214300
